!These Parameters are Measured in Series Mode Connection
! o--[Z]--o
!Port1 Port2
! o-------o
!
!FREQ S11 S21 S12 S22
# MHZ S RI R 50
0.01 1.6386980262637E-04 2.14245749974023E-03 0.999836130197374 -2.14245749974023E-03 0.999836130197374 -2.14245749974023E-03 1.6386980262637E-04 2.14245749974023E-03
0.010476277 1.25055962044315E-04 2.22961033249138E-03 0.999874944037956 -2.22961033249138E-03 0.999874944037956 -2.22961033249138E-03 1.25055962044315E-04 2.22961033249138E-03
0.010975237 1.39365910970039E-04 2.31113203060677E-03 0.99986063408903 -2.31113203060677E-03 0.99986063408903 -2.31113203060677E-03 1.39365910970039E-04 2.31113203060677E-03
0.011497963 1.25505016998778E-04 2.42767083031132E-03 0.999874494983001 -2.42767083031132E-03 0.999874494983001 -2.42767083031132E-03 1.25505016998778E-04 2.42767083031132E-03
0.012045584 1.39023427497011E-04 2.5117853160592E-03 0.999860976572503 -2.5117853160592E-03 0.999860976572503 -2.5117853160592E-03 1.39023427497011E-04 2.5117853160592E-03
0.012619287 1.426306660663E-04 2.64483788008979E-03 0.999857369333934 -2.64483788008979E-03 0.999857369333934 -2.64483788008979E-03 1.426306660663E-04 2.64483788008979E-03
0.013220314 1.550663719522E-04 2.75021068558687E-03 0.999844933628048 -2.75021068558687E-03 0.999844933628048 -2.75021068558687E-03 1.550663719522E-04 2.75021068558687E-03
0.013849967 1.42016182266407E-04 2.88311990516644E-03 0.999857983817734 -2.88311990516644E-03 0.999857983817734 -2.88311990516644E-03 1.42016182266407E-04 2.88311990516644E-03
0.014509609 0.0001624576092 3.00850050176545E-03 0.9998375423908 -3.00850050176545E-03 0.9998375423908 -3.00850050176545E-03 0.0001624576092 3.00850050176545E-03
0.015200668 1.84111302999844E-04 3.15768845472493E-03 0.999815888697 -3.15768845472493E-03 0.999815888697 -3.15768845472493E-03 1.84111302999844E-04 3.15768845472493E-03
0.01592464 1.84885673673413E-04 3.30490872437238E-03 0.999815114326326 -3.30490872437238E-03 0.999815114326326 -3.30490872437238E-03 1.84885673673413E-04 3.30490872437238E-03
0.016683094 1.89830363825483E-04 3.43211804708095E-03 0.999810169636175 -3.43211804708095E-03 0.999810169636175 -3.43211804708095E-03 1.89830363825483E-04 3.43211804708095E-03
0.017477671 1.67301807310919E-04 3.62843840844119E-03 0.999832698192689 -3.62843840844119E-03 0.999832698192689 -3.62843840844119E-03 1.67301807310919E-04 3.62843840844119E-03
0.018310092 2.05368587921012E-04 3.76837126932684E-03 0.999794631412079 -3.76837126932684E-03 0.999794631412079 -3.76837126932684E-03 2.05368587921012E-04 3.76837126932684E-03
0.019182159 2.14409031047369E-04 3.97167602850089E-03 0.999785590968953 -3.97167602850089E-03 0.999785590968953 -3.97167602850089E-03 2.14409031047369E-04 3.97167602850089E-03
0.020095761 2.15251881411762E-04 4.13506602782255E-03 0.999784748118588 -4.13506602782255E-03 0.999784748118588 -4.13506602782255E-03 2.15251881411762E-04 4.13506602782255E-03
0.021052875 2.13749934875814E-04 4.30665525855545E-03 0.999786250065124 -4.30665525855545E-03 0.999786250065124 -4.30665525855545E-03 2.13749934875814E-04 4.30665525855545E-03
0.022055575 2.50200196244088E-04 4.54780257565225E-03 0.999749799803756 -4.54780257565225E-03 0.999749799803756 -4.54780257565225E-03 2.50200196244088E-04 4.54780257565225E-03
0.02310603 2.36349401615593E-04 4.75513907369573E-03 0.999763650598385 -4.75513907369573E-03 0.999763650598385 -4.75513907369573E-03 2.36349401615593E-04 4.75513907369573E-03
0.024206517 2.47696524926087E-04 5.00022314110718E-03 0.999752303475074 -5.00022314110718E-03 0.999752303475074 -5.00022314110718E-03 2.47696524926087E-04 5.00022314110718E-03
0.025359417 2.63103801041105E-04 5.20768297282768E-03 0.999736896198959 -5.20768297282768E-03 0.999736896198959 -5.20768297282768E-03 2.63103801041105E-04 5.20768297282768E-03
0.026567227 2.82987561307987E-04 5.44670975258733E-03 0.999717012438692 -5.44670975258733E-03 0.999717012438692 -5.44670975258733E-03 2.82987561307987E-04 5.44670975258733E-03
0.027832563 2.76511600800453E-04 5.71145963209595E-03 0.999723488399199 -5.71145963209595E-03 0.999723488399199 -5.71145963209595E-03 2.76511600800453E-04 5.71145963209595E-03
0.029158163 2.98742773211874E-04 5.97432131508614E-03 0.999701257226788 -5.97432131508614E-03 0.999701257226788 -5.97432131508614E-03 2.98742773211874E-04 5.97432131508614E-03
0.030546899 3.08855510949458E-04 6.26148720085415E-03 0.999691144489051 -6.26148720085415E-03 0.999691144489051 -6.26148720085415E-03 3.08855510949458E-04 6.26148720085415E-03
0.032001776 3.3825511705716E-04 6.55018688608889E-03 0.999661744882943 -6.55018688608889E-03 0.999661744882943 -6.55018688608889E-03 3.3825511705716E-04 6.55018688608889E-03
0.033525947 3.34791396596435E-04 6.87580125381267E-03 0.999665208603404 -6.87580125381267E-03 0.999665208603404 -6.87580125381267E-03 3.34791396596435E-04 6.87580125381267E-03
0.03512271 3.71333450614975E-04 7.18870323979713E-03 0.999628666549385 -7.18870323979713E-03 0.999628666549385 -7.18870323979713E-03 3.71333450614975E-04 7.18870323979713E-03
0.036795523 3.76100266144528E-04 7.54697343262736E-03 0.999623899733855 -7.54697343262736E-03 0.999623899733855 -7.54697343262736E-03 3.76100266144528E-04 7.54697343262736E-03
0.038548008 4.1616766763723E-04 7.89062232740056E-03 0.999583832332363 -7.89062232740056E-03 0.999583832332363 -7.89062232740056E-03 4.1616766763723E-04 7.89062232740056E-03
0.04038396 4.32633028042531E-04 8.27138423969154E-03 0.999567366971957 -8.27138423969154E-03 0.999567366971957 -8.27138423969154E-03 4.32633028042531E-04 8.27138423969154E-03
0.042307354 4.36469594474126E-04 8.65503516123568E-03 0.999563530405526 -8.65503516123568E-03 0.999563530405526 -8.65503516123568E-03 4.36469594474126E-04 8.65503516123568E-03
0.044322355 4.73144324413135E-04 9.02778814710784E-03 0.999526855675587 -9.02778814710784E-03 0.999526855675587 -9.02778814710784E-03 4.73144324413135E-04 9.02778814710784E-03
0.046433326 4.90254210027362E-04 9.46943102665586E-03 0.999509745789972 -9.46943102665586E-03 0.999509745789972 -9.46943102665586E-03 4.90254210027362E-04 9.46943102665586E-03
0.048644837 4.9767063833331E-04 9.8971089264721E-03 0.999502329361667 -9.8971089264721E-03 0.999502329361667 -9.8971089264721E-03 4.9767063833331E-04 9.8971089264721E-03
0.050961678 5.5802080254486E-04 1.03945749976276E-02 0.999441979197455 -1.03945749976276E-02 0.999441979197455 -1.03945749976276E-02 5.5802080254486E-04 1.03945749976276E-02
0.053388864 5.68724722054777E-04 1.08868493207961E-02 0.999431275277946 -1.08868493207961E-02 0.999431275277946 -1.08868493207961E-02 5.68724722054777E-04 1.08868493207961E-02
0.055931652 5.99198331657805E-04 1.13841637122545E-02 0.999400801668342 -1.13841637122545E-02 0.999400801668342 -1.13841637122545E-02 5.99198331657805E-04 1.13841637122545E-02
0.058595547 6.66767924783702E-04 1.19043604961259E-02 0.999333232075216 -1.19043604961259E-02 0.999333232075216 -1.19043604961259E-02 6.66767924783702E-04 1.19043604961259E-02
0.061386316 6.93704274785057E-04 1.24699652115795E-02 0.999306295725215 -1.24699652115795E-02 0.999306295725215 -1.24699652115795E-02 6.93704274785057E-04 1.24699652115795E-02
0.064310004 7.56702533245895E-04 1.30449315149065E-02 0.999243297466754 -1.30449315149065E-02 0.999243297466754 -1.30449315149065E-02 7.56702533245895E-04 1.30449315149065E-02
0.06737294 7.74366921351311E-04 1.36588171955537E-02 0.999225633078649 -1.36588171955537E-02 0.999225633078649 -1.36588171955537E-02 7.74366921351311E-04 1.36588171955537E-02
0.070581757 8.08895372430707E-04 1.42940965105812E-02 0.999191104627569 -1.42940965105812E-02 0.999191104627569 -1.42940965105812E-02 8.08895372430707E-04 1.42940965105812E-02
0.073943402 8.89621814810823E-04 1.49282014938306E-02 0.999110378185189 -1.49282014938306E-02 0.999110378185189 -1.49282014938306E-02 8.89621814810823E-04 1.49282014938306E-02
0.077465154 9.33208827944152E-04 1.56361217765151E-02 0.999066791172056 -1.56361217765151E-02 0.999066791172056 -1.56361217765151E-02 9.33208827944152E-04 1.56361217765151E-02
0.08115464 1.02013563789118E-03 1.63643700907306E-02 0.998979864362109 -1.63643700907306E-02 0.998979864362109 -1.63643700907306E-02 1.02013563789118E-03 1.63643700907306E-02
0.085019847 1.06847126502587E-03 1.71371530661468E-02 0.998931528734974 -1.71371530661468E-02 0.998931528734974 -1.71371530661468E-02 1.06847126502587E-03 1.71371530661468E-02
0.089069145 1.14911833464632E-03 1.79195443614876E-02 0.998850881665354 -1.79195443614876E-02 0.998850881665354 -1.79195443614876E-02 1.14911833464632E-03 1.79195443614876E-02
0.093311301 1.22638885712246E-03 1.87150265399832E-02 0.998773611142877 -1.87150265399832E-02 0.998773611142877 -1.87150265399832E-02 1.22638885712246E-03 1.87150265399832E-02
0.097755501 1.30487057015105E-03 1.96076936250335E-02 0.998695129429849 -1.96076936250335E-02 0.998695129429849 -1.96076936250335E-02 1.30487057015105E-03 1.96076936250335E-02
0.102411369 1.40715336552048E-03 2.04856471524349E-02 0.998592846634479 -2.04856471524349E-02 0.998592846634479 -2.04856471524349E-02 1.40715336552048E-03 2.04856471524349E-02
0.107288985 1.50202185223955E-03 2.14500119109199E-02 0.99849797814776 -2.14500119109199E-02 0.99849797814776 -2.14500119109199E-02 1.50202185223955E-03 2.14500119109199E-02
0.11239891 1.61898939541818E-03 0.022430586653475 0.998381010604582 -0.022430586653475 0.998381010604582 -0.022430586653475 1.61898939541818E-03 0.022430586653475
0.117752209 1.71470069269339E-03 2.34308541804146E-02 0.998285299307307 -2.34308541804146E-02 0.998285299307307 -2.34308541804146E-02 1.71470069269339E-03 2.34308541804146E-02
0.123360473 1.87472101634313E-03 2.45195396772338E-02 0.998125278983657 -2.45195396772338E-02 0.998125278983657 -2.45195396772338E-02 1.87472101634313E-03 2.45195396772338E-02
0.129235845 1.98753795965163E-03 2.56591555350506E-02 0.998012462040349 -2.56591555350506E-02 0.998012462040349 -2.56591555350506E-02 1.98753795965163E-03 2.56591555350506E-02
0.135391049 2.10690887120311E-03 2.68403368659202E-02 0.997893091128797 -2.68403368659202E-02 0.997893091128797 -2.68403368659202E-02 2.10690887120311E-03 2.68403368659202E-02
0.14183941 2.25486234553594E-03 2.80692841284189E-02 0.997745137654464 -2.80692841284189E-02 0.997745137654464 -2.80692841284189E-02 2.25486234553594E-03 2.80692841284189E-02
0.148594891 2.4344803029065E-03 2.93475663899325E-02 0.997565519697093 -2.93475663899325E-02 0.997565519697093 -2.93475663899325E-02 2.4344803029065E-03 2.93475663899325E-02
0.155672121 2.58023254826804E-03 3.06679405149854E-02 0.997419767451732 -3.06679405149854E-02 0.997419767451732 -3.06679405149854E-02 2.58023254826804E-03 3.06679405149854E-02
0.163086422 2.77811117428801E-03 3.20653761886135E-02 0.997221888825712 -3.20653761886135E-02 0.997221888825712 -3.20653761886135E-02 2.77811117428801E-03 3.20653761886135E-02
0.17085385 2.95834905091108E-03 3.35407547850329E-02 0.997041650949089 -3.35407547850329E-02 0.997041650949089 -3.35407547850329E-02 2.95834905091108E-03 3.35407547850329E-02
0.178991222 3.1620872932315E-03 3.50581545463309E-02 0.996837912706768 -3.50581545463309E-02 0.996837912706768 -3.50581545463309E-02 3.1620872932315E-03 3.50581545463309E-02
0.187516158 3.4020440479112E-03 3.66588248068367E-02 0.996597955952089 -3.66588248068367E-02 0.996597955952089 -3.66588248068367E-02 3.4020440479112E-03 3.66588248068367E-02
0.196447117 3.65748169736789E-03 3.83089536475397E-02 0.996342518302632 -3.83089536475397E-02 0.996342518302632 -3.83089536475397E-02 3.65748169736789E-03 3.83089536475397E-02
0.205803437 3.94143137163895E-03 0.040030741649939 0.996058568628361 -0.040030741649939 0.996058568628361 -0.040030741649939 3.94143137163895E-03 0.040030741649939
0.215605376 4.15935054673088E-03 4.18353108493897E-02 0.995840649453269 -4.18353108493897E-02 0.995840649453269 -4.18353108493897E-02 4.15935054673088E-03 4.18353108493897E-02
0.22587416 4.45743685545292E-03 4.37355521929221E-02 0.995542563144547 -4.37355521929221E-02 0.995542563144547 -4.37355521929221E-02 4.45743685545292E-03 4.37355521929221E-02
0.236632021 4.7669930656652E-03 4.56777646160739E-02 0.995233006934335 -4.56777646160739E-02 0.995233006934335 -4.56777646160739E-02 4.7669930656652E-03 4.56777646160739E-02
0.247902254 5.05830023600892E-03 4.77362952881184E-02 0.994941699763991 -4.77362952881184E-02 0.994941699763991 -4.77362952881184E-02 5.05830023600892E-03 4.77362952881184E-02
0.259709263 5.43249766121408E-03 4.98423200730254E-02 0.994567502338786 -4.98423200730254E-02 0.994567502338786 -4.98423200730254E-02 5.43249766121408E-03 4.98423200730254E-02
0.272078612 5.79271894202798E-03 5.21089719510347E-02 0.994207281057972 -5.21089719510347E-02 0.994207281057972 -5.21089719510347E-02 5.79271894202798E-03 5.21089719510347E-02
0.285037084 6.22118857242751E-03 0.054409816482676 0.993778811427573 -0.054409816482676 0.993778811427573 -0.054409816482676 6.22118857242751E-03 0.054409816482676
0.298612738 6.6246279435293E-03 5.68461510758077E-02 0.993375372056471 -5.68461510758077E-02 0.993375372056471 -5.68461510758077E-02 6.6246279435293E-03 5.68461510758077E-02
0.312834969 7.08188276674856E-03 5.93543090111217E-02 0.992918117233251 -5.93543090111217E-02 0.992918117233251 -5.93543090111217E-02 7.08188276674856E-03 5.93543090111217E-02
0.327734572 7.57969802028097E-03 6.20215741283579E-02 0.992420301979719 -6.20215741283579E-02 0.992420301979719 -6.20215741283579E-02 7.57969802028097E-03 6.20215741283579E-02
0.343343809 8.11067023355017E-03 6.47825131067689E-02 0.99188932976645 -6.47825131067689E-02 0.99188932976645 -6.47825131067689E-02 8.11067023355017E-03 6.47825131067689E-02
0.359696477 8.6317210866092E-03 0.067644340675022 0.991368278913391 -0.067644340675022 0.991368278913391 -0.067644340675022 8.6317210866092E-03 0.067644340675022
0.376827984 9.22379225817287E-03 7.06708618461135E-02 0.990776207741827 -7.06708618461135E-02 0.990776207741827 -7.06708618461135E-02 9.22379225817287E-03 7.06708618461135E-02
0.394775426 9.84932609034427E-03 7.38443072635363E-02 0.990150673909656 -7.38443072635363E-02 0.990150673909656 -7.38443072635363E-02 9.84932609034427E-03 7.38443072635363E-02
0.413577662 1.05280042153251E-02 7.71099184763881E-02 0.989471995784675 -7.71099184763881E-02 0.989471995784675 -7.71099184763881E-02 1.05280042153251E-02 7.71099184763881E-02
0.433275406 1.12589164560436E-02 8.05511687516593E-02 0.988741083543956 -8.05511687516593E-02 0.988741083543956 -8.05511687516593E-02 1.12589164560436E-02 8.05511687516593E-02
0.453911307 1.20141541415862E-02 8.41245169745525E-02 0.987985845858414 -8.41245169745525E-02 0.987985845858414 -8.41245169745525E-02 1.20141541415862E-02 8.41245169745525E-02
0.475530048 1.28343593890414E-02 8.78620664352789E-02 0.987165640610959 -8.78620664352789E-02 0.987165640610959 -8.78620664352789E-02 1.28343593890414E-02 8.78620664352789E-02
0.498178439 0.013735447466958 9.17888776767303E-02 0.986264552533042 -9.17888776767303E-02 0.986264552533042 -9.17888776767303E-02 0.013735447466958 9.17888776767303E-02
0.521905521 1.47415926768615E-02 9.58774207200868E-02 0.985258407323139 -9.58774207200868E-02 0.985258407323139 -9.58774207200868E-02 1.47415926768615E-02 9.58774207200868E-02
0.546762669 1.57218639707133E-02 0.100129446770653 0.984278136029287 -0.100129446770653 0.984278136029287 -0.100129446770653 1.57218639707133E-02 0.100129446770653
0.572803705 1.68513965847268E-02 0.104532080388478 0.983148603415273 -0.104532080388478 0.983148603415273 -0.104532080388478 1.68513965847268E-02 0.104532080388478
0.600085014 1.80289014080467E-02 0.109171728288179 0.981971098591953 -0.109171728288179 0.981971098591953 -0.109171728288179 1.80289014080467E-02 0.109171728288179
0.62866567 0.0193788466842 0.114007106126122 0.9806211533158 -0.114007106126122 0.9806211533158 -0.114007106126122 0.0193788466842 0.114007106126122
0.658607555 2.08319978699932E-02 0.119022111688992 0.979168002130007 -0.119022111688992 0.979168002130007 -0.119022111688992 2.08319978699932E-02 0.119022111688992
0.689975503 2.23097504391868E-02 0.124264448652658 0.977690249560813 -0.124264448652658 0.977690249560813 -0.124264448652658 2.23097504391868E-02 0.124264448652658
0.722837433 2.39713097679157E-02 0.129752994526077 0.976028690232085 -0.129752994526077 0.976028690232085 -0.129752994526077 2.39713097679157E-02 0.129752994526077
0.757264501 2.57878601929488E-02 0.135463010017619 0.974212139807051 -0.135463010017619 0.974212139807051 -0.135463010017619 2.57878601929488E-02 0.135463010017619
0.79333125 2.76973087937498E-02 0.141366393553736 0.97230269120625 -0.141366393553736 0.97230269120625 -0.141366393553736 2.76973087937498E-02 0.141366393553736
0.831115775 2.97842121976988E-02 0.147542797881506 0.970215787802301 -0.147542797881506 0.970215787802301 -0.147542797881506 2.97842121976988E-02 0.147542797881506
0.870699889 0.032077293400664 0.153904638067586 0.967922706599336 -0.153904638067586 0.967922706599336 -0.153904638067586 0.032077293400664 0.153904638067586
0.912169302 3.45295976865773E-02 0.160614717247079 0.965470402313423 -0.160614717247079 0.965470402313423 -0.160614717247079 3.45295976865773E-02 0.160614717247079
0.955613807 3.71601888908661E-02 0.167518335919979 0.962839811109134 -0.167518335919979 0.962839811109134 -0.167518335919979 3.71601888908661E-02 0.167518335919979
1 4.03707593712924E-02 0.174516170640474 0.959629240628708 -0.174516170640474 0.959629240628708 -0.174516170640474 4.03707593712924E-02 0.174516170640474
1.040843911885 4.30348068555245E-02 0.18101188052219 0.956965193144476 -0.18101188052219 0.956965193144476 -0.18101188052219 4.30348068555245E-02 0.18101188052219
1.083356048908 4.58943504373609E-02 0.187614558877915 0.954105649562639 -0.187614558877915 0.954105649562639 -0.187614558877915 4.58943504373609E-02 0.187614558877915
1.1276045479097 4.89289095330513E-02 0.194393059644174 0.951071090466949 -0.194393059644174 0.951071090466949 -0.194393059644174 4.89289095330513E-02 0.194393059644174
1.1736603287056 0.052209535431583 0.201389249132139 0.947790464568417 -0.201389249132139 0.947790464568417 -0.201389249132139 0.052209535431583 0.201389249132139
1.2215972077542 5.57481645527553E-02 0.208618472388932 0.944251835447245 -0.208618472388932 0.944251835447245 -0.208618472388932 5.57481645527553E-02 0.208618472388932
1.2714920164666 5.94414482878887E-02 0.216018787569006 0.940558551712111 -0.216018787569006 0.940558551712111 -0.216018787569006 5.94414482878887E-02 0.216018787569006
1.3234247243496 6.35084809101568E-02 0.223656752478305 0.936491519089843 -0.223656752478305 0.936491519089843 -0.223656752478305 6.35084809101568E-02 0.223656752478305
1.3774785671774 6.78720478210301E-02 0.23142215935663 0.93212795217897 -0.23142215935663 0.93212795217897 -0.23142215935663 6.78720478210301E-02 0.23142215935663
1.4337401803986 7.24642547642009E-02 0.239487404492594 0.927535745235799 -0.239487404492594 0.927535745235799 -0.239487404492594 7.24642547642009E-02 0.239487404492594
1.4922997379928 7.73227135712815E-02 0.247649307979171 0.922677286428719 -0.247649307979171 0.922677286428719 -0.247649307979171 7.73227135712815E-02 0.247649307979171
1.5532510969973 0.082552308923075 0.256081829684847 0.917447691076925 -0.256081829684847 0.917447691076925 -0.256081829684847 0.082552308923075 0.256081829684847
1.6166919479383 8.81822722076194E-02 0.264661745067387 0.91181772779238 -0.264661745067387 0.91181772779238 -0.264661745067387 8.81822722076194E-02 0.264661745067387
1.6827239714051 9.41199426287982E-02 0.273458710187305 0.905880057371202 -0.273458710187305 0.905880057371202 -0.273458710187305 9.41199426287982E-02 0.273458710187305
1.7514530010199 0.100529197601319 0.282374408302325 0.899470802398681 -0.282374408302325 0.899470802398681 -0.282374408302325 0.100529197601319 0.282374408302325
1.8229891930642 0.107207558792437 0.291371003463356 0.892792441207563 -0.291371003463356 0.892792441207563 -0.291371003463356 0.107207558792437 0.291371003463356
1.897447203033 0.114492201341248 0.30062815266762 0.885507798658752 -0.30062815266762 0.885507798658752 -0.30062815266762 0.114492201341248 0.30062815266762
1.9749463694001 0.122116965860062 0.309871155044652 0.877883034139938 -0.309871155044652 0.877883034139938 -0.309871155044652 0.122116965860062 0.309871155044652
2.0556109048895 0.130301583655754 0.319389661898203 0.869698416344246 -0.319389661898203 0.869698416344246 -0.319389661898203 0.130301583655754 0.319389661898203
2.1395700955586 0.138912454153251 0.328849545584304 0.86108754584675 -0.328849545584304 0.86108754584675 -0.328849545584304 0.138912454153251 0.328849545584304
2.2269585080133 0.148114866829267 0.338362926029307 0.851885133170733 -0.338362926029307 0.851885133170733 -0.338362926029307 0.148114866829267 0.338362926029307
2.3179162050861 0.157822592511603 0.347944376945248 0.842177407488397 -0.347944376945248 0.842177407488397 -0.347944376945248 0.157822592511603 0.347944376945248
2.4125889703234 0.167868698982014 0.357493224264156 0.832131301017986 -0.357493224264156 0.832131301017986 -0.357493224264156 0.167868698982014 0.357493224264156
2.511128541642 0.178879238751977 0.367077076603931 0.821120761248023 -0.367077076603931 0.821120761248023 -0.367077076603931 0.178879238751977 0.367077076603931
2.6136928545287 0.190227336069279 0.376489687186764 0.809772663930721 -0.376489687186764 0.809772663930721 -0.376489687186764 0.190227336069279 0.376489687186764
2.7204462951734 0.202340880045933 0.385898273900486 0.797659119954067 -0.385898273900486 0.797659119954067 -0.385898273900486 0.202340880045933 0.385898273900486
2.8315599639413 0.214864728884711 0.395097688288036 0.785135271115289 -0.395097688288036 0.785135271115289 -0.395097688288036 0.214864728884711 0.395097688288036
2.9472119496056 0.227940046534022 0.404039768697851 0.772059953465978 -0.404039768697851 0.772059953465978 -0.404039768697851 0.227940046534022 0.404039768697851
3.0675876147816 0.241781866101254 0.412879919786319 0.758218133898746 -0.412879919786319 0.758218133898746 -0.412879919786319 0.241781866101254 0.412879919786319
3.1928798930192 0.256319060987949 0.421427066032317 0.743680939012051 -0.421427066032317 0.743680939012051 -0.421427066032317 0.256319060987949 0.421427066032317
3.323289598029 0.271334146397952 0.429611192159068 0.728665853602048 -0.429611192159068 0.728665853602048 -0.429611192159068 0.271334146397952 0.429611192159068
3.4590257455392 0.287016329961352 0.437329723779039 0.712983670038647 -0.437329723779039 0.712983670038647 -0.437329723779039 0.287016329961352 0.437329723779039
3.6003058882979 0.303267399378385 0.444571241121828 0.696732600621615 -0.444571241121828 0.696732600621615 -0.444571241121828 0.303267399378385 0.444571241121828
3.7473564647585 0.32002763753483 0.45143296920513 0.679972362465169 -0.45143296920513 0.679972362465169 -0.45143296920513 0.32002763753483 0.45143296920513
3.9004131620067 0.337223450001732 0.45764106493944 0.662776549998268 -0.45764106493944 0.662776549998268 -0.45764106493944 0.337223450001732 0.45764106493944
4.0597212935107 0.355059597070043 0.463231871719251 0.644940402929957 -0.463231871719251 0.644940402929957 -0.463231871719251 0.355059597070043 0.463231871719251
4.2255361923005 0.373174252784528 0.468229170050744 0.626825747215472 -0.468229170050744 0.626825747215472 -0.468229170050744 0.373174252784528 0.468229170050744
4.3981236202056 0.39200032597579 0.472716835358537 0.60799967402421 -0.472716835358536 0.60799967402421 -0.472716835358536 0.39200032597579 0.472716835358537
4.5777601938085 0.410931068129967 0.476448955019921 0.589068931870033 -0.476448955019921 0.589068931870033 -0.476448955019921 0.410931068129967 0.476448955019921
4.764733827795 0.430080572879581 0.479213101593767 0.569919427120419 -0.479213101593767 0.569919427120419 -0.479213101593767 0.430080572879581 0.479213101593767
4.9593441964128 0.449458610421608 0.481299758567494 0.550541389578392 -0.481299758567494 0.550541389578392 -0.481299758567494 0.449458610421608 0.481299758567494
5.1619032137784 0.469043255662265 0.48254843587646 0.530956744337735 -0.48254843587646 0.530956744337735 -0.48254843587646 0.469043255662265 0.48254843587646
5.3727355338008 0.488856546044596 0.483150214853814 0.511143453955404 -0.483150214853814 0.511143453955404 -0.483150214853814 0.488856546044596 0.483150214853814
5.5921790705246 0.508505360684484 0.482894497184272 0.491494639315516 -0.482894497184272 0.491494639315516 -0.482894497184272 0.508505360684484 0.482894497184272
5.8205855397262 0.528257533073418 0.481748871422575 0.471742466926582 -0.481748871422575 0.471742466926582 -0.481748871422575 0.528257533073418 0.481748871422575
6.0583210226297 0.548003770959585 0.479776030566553 0.451996229040415 -0.479776030566553 0.451996229040415 -0.479776030566553 0.548003770959585 0.479776030566553
6.305766552649 0.567352040849972 0.477166806271873 0.432647959150028 -0.477166806271873 0.432647959150028 -0.477166806271873 0.567352040849972 0.477166806271873
6.5633187260926 0.586587903123549 0.473630473582801 0.413412096876451 -0.473630473582802 0.413412096876451 -0.473630473582802 0.586587903123549 0.473630473582801
6.8313903378142 0.605573167260536 0.469638004872628 0.394426832739464 -0.469638004872628 0.394426832739464 -0.469638004872628 0.605573167260536 0.469638004872628
7.1104110428238 0.624296521780112 0.464715825156608 0.375703478219888 -0.464715825156608 0.375703478219888 -0.464715825156608 0.624296521780112 0.464715825156608
7.4008280449229 0.642752305859056 0.459072601073243 0.357247694140944 -0.459072601073243 0.357247694140944 -0.459072601073243 0.642752305859056 0.459072601073243
7.7031068134656 0.660515213280613 0.452901916316171 0.339484786719387 -0.452901916316171 0.339484786719387 -0.452901916316171 0.660515213280613 0.452901916316171
8.0177318293954 0.678143544726125 0.446004073102609 0.321856455273875 -0.446004073102609 0.321856455273875 -0.446004073102609 0.678143544726125 0.446004073102609
8.3452073617526 0.695110111048346 0.438670768331273 0.304889888951654 -0.438670768331273 0.304889888951654 -0.438670768331273 0.695110111048346 0.438670768331273
8.6860582758979 0.711648055982693 0.43069885824376 0.288351944017307 -0.43069885824376 0.288351944017307 -0.43069885824376 0.711648055982693 0.43069885824376
9.0408308747465 0.727631432087447 0.422242641231277 0.272368567912553 -0.422242641231277 0.272368567912553 -0.422242641231277 0.727631432087447 0.422242641231277
9.4100937743616 0.742984128805491 0.41330507252952 0.257015871194509 -0.41330507252952 0.257015871194509 -0.41330507252952 0.742984128805491 0.41330507252952
9.7944388153111 0.75788534878744 0.40405232187261 0.24211465121256 -0.40405232187261 0.24211465121256 -0.40405232187261 0.75788534878744 0.40405232187261
10.194482011246 0.772156886098087 0.394475625061267 0.227843113901913 -0.394475625061267 0.227843113901913 -0.394475625061267 0.772156886098087 0.394475625061267
10.610864536227 0.785962107661047 0.384601688325539 0.214037892338953 -0.384601688325539 0.214037892338953 -0.384601688325539 0.785962107661047 0.384601688325539
11.044253752368 0.798900975908895 0.374478948673535 0.201099024091105 -0.374478948673535 0.201099024091105 -0.374478948673535 0.798900975908895 0.374478948673535
11.495344279465 0.811382035420903 0.364214371965558 0.188617964579097 -0.364214371965558 0.188617964579097 -0.364214371965558 0.811382035420903 0.364214371965558
11.964859108303 0.823379546105007 0.353570579608831 0.176620453894993 -0.353570579608831 0.176620453894993 -0.353570579608831 0.823379546105007 0.353570579608831
12.453550759439 0.83460162281253 0.342667672763923 0.16539837718747 -0.342667672763923 0.16539837718747 -0.342667672763923 0.83460162281253 0.342667672763923
12.962202489312 0.845441483450534 0.331805591478097 0.154558516549467 -0.331805591478097 0.154558516549467 -0.331805591478097 0.845441483450534 0.331805591478097
13.491629545621 0.855664687490204 0.320836317506511 0.144335312509796 -0.320836317506511 0.144335312509796 -0.320836317506511 0.855664687490204 0.320836317506511
14.042680473967 0.865396570956796 0.309841922476232 0.134603429043204 -0.309841922476232 0.134603429043204 -0.309841922476232 0.865396570956796 0.309841922476232
14.616238477875 0.874502830420353 0.298821937955279 0.125497169579647 -0.298821937955279 0.125497169579647 -0.298821937955279 0.874502830420353 0.298821937955279
15.213222834355 0.883228132889496 0.287885934894429 0.116771867110505 -0.287885934894429 0.116771867110505 -0.287885934894429 0.883228132889496 0.287885934894429
15.834590367288 0.89130432966672 0.276816714267286 0.10869567033328 -0.276816714267286 0.10869567033328 -0.276816714267286 0.89130432966672 0.276816714267286
16.481336980984 0.898920076044944 0.265837786777601 0.101079923955056 -0.265837786777601 0.101079923955056 -0.265837786777601 0.898920076044944 0.265837786777601
17.154499256382 0.906131440856266 0.254860055333561 9.38685591437343E-02 -0.254860055333561 9.38685591437343E-02 -0.254860055333561 0.906131440856266 0.254860055333561
17.855156112441 0.912850635752971 0.243984639185625 8.71493642470287E-02 -0.243984639185625 8.71493642470287E-02 -0.243984639185625 0.912850635752971 0.243984639185625
18.58443053539 0.919101626169813 0.233204936565432 8.08983738301873E-02 -0.233204936565432 8.08983738301873E-02 -0.233204936565432 0.919101626169813 0.233204936565432
19.34349137861 0.925015107983554 0.222446839490886 7.49848920164464E-02 -0.222446839490886 7.49848920164464E-02 -0.222446839490886 0.925015107983554 0.222446839490886
20.133555236026 0.930492071368492 0.21180017901432 6.95079286315083E-02 -0.21180017901432 6.95079286315083E-02 -0.21180017901432 0.930492071368492 0.21180017901432
20.955888392018 0.935594109945975 0.201227588611591 6.44058900540252E-02 -0.201227588611591 6.44058900540252E-02 -0.201227588611591 0.935594109945975 0.201227588611591
21.811808850973 0.940452684567551 0.190792167397075 5.95473154324488E-02 -0.190792167397075 5.95473154324488E-02 -0.190792167397075 0.940452684567551 0.190792167397075
22.702688449734 0.944867107980428 0.180513502291281 5.51328920195716E-02 -0.180513502291281 5.51328920195716E-02 -0.180513502291281 0.944867107980428 0.180513502291281
23.629955056327 0.949044990001692 0.170234427078689 5.09550099983083E-02 -0.170234427078689 5.09550099983083E-02 -0.170234427078689 0.949044990001692 0.170234427078689
24.595094858494 0.952767036606599 0.160245647629679 4.72329633934008E-02 -0.160245647629679 4.72329633934008E-02 -0.160245647629679 0.952767036606599 0.160245647629679
25.599654745697 0.956344376399261 0.150262210028659 4.36556236007396E-02 -0.150262210028659 4.36556236007396E-02 -0.150262210028659 0.956344376399261 0.150262210028659
26.645244788416 0.959776811970469 0.140333514154953 4.02231880295316E-02 -0.140333514154953 4.02231880295316E-02 -0.140333514154953 0.959776811970469 0.140333514154953
27.733540818708 0.962818210022812 0.130481469914381 3.71817899771882E-02 -0.130481469914381 3.71817899771882E-02 -0.130481469914381 0.962818210022812 0.130481469914381
28.866287116165 0.965612600418287 0.120845002588078 3.43873995817131E-02 -0.120845002588078 3.43873995817131E-02 -0.120845002588078 0.965612600418287 0.120845002588078
30.045299203585 0.968095953985945 0.111185686220365 3.19040460140555E-02 -0.111185686220365 3.19040460140555E-02 -0.111185686220365 0.968095953985945 0.111185686220365
31.272466756814 0.970258958609358 0.101764951376568 2.97410413906417E-02 -0.101764951376568 2.97410413906417E-02 -0.101764951376568 0.970258958609358 0.101764951376568
32.549756633455 0.972315057658956 9.24126512897922E-02 2.76849423410444E-02 -9.24126512897922E-02 2.76849423410444E-02 -9.24126512897922E-02 0.972315057658956 9.24126512897922E-02
33.879216025269 0.974234425307808 8.28924424459201E-02 2.57655746921924E-02 -0.08289244244592 2.57655746921924E-02 -0.08289244244592 0.974234425307808 8.28924424459201E-02
35.262975739338 0.975890184405294 7.34553624466993E-02 2.41098155947065E-02 -7.34553624466993E-02 2.41098155947065E-02 -7.34553624466993E-02 0.975890184405294 7.34553624466993E-02
36.703253613237 0.977317784397148 6.43488832904163E-02 2.26822156028517E-02 -6.43488832904163E-02 2.26822156028517E-02 -6.43488832904163E-02 0.977317784397148 6.43488832904163E-02
38.202358069709 0.978462597706525 5.51806467957761E-02 2.15374022934756E-02 -5.51806467957761E-02 2.15374022934756E-02 -5.51806467957761E-02 0.978462597706525 5.51806467957761E-02
39.762691816506 0.979617216263867 4.59970268251708E-02 2.03827837361334E-02 -4.59970268251708E-02 2.03827837361334E-02 -4.59970268251708E-02 0.979617216263867 4.59970268251708E-02
41.386755697369 0.98048695979474 0.036770084239583 1.95130402052602E-02 -0.036770084239583 1.95130402052602E-02 -0.036770084239583 0.98048695979474 0.036770084239583
43.077152700278 0.981167266450974 2.76913289013082E-02 1.88327335490262E-02 -2.76913289013082E-02 1.88327335490262E-02 -2.76913289013082E-02 0.981167266450974 2.76913289013082E-02
44.836592129424 0.981480967030745 1.85472087978931E-02 1.85190329692554E-02 -1.85472087978931E-02 1.85190329692554E-02 -1.85472087978931E-02 0.981480967030745 1.85472087978931E-02
46.667893947581 0.981972384775333 9.41386061842088E-03 1.80276152246677E-02 -9.41386061842088E-03 1.80276152246677E-02 -9.41386061842088E-03 0.981972384775333 9.41386061842088E-03
48.573993295833 0.982198752663272 4.51789161535068E-04 1.78012473367282E-02 -4.51789161535068E-04 1.78012473367282E-02 -4.51789161535068E-04 0.982198752663272 4.51789161535068E-04
50.55794519791 0.982131175496841 -8.72209020336194E-03 1.78688245031589E-02 8.72209020336194E-03 1.78688245031589E-02 8.72209020336194E-03 0.982131175496841 -8.72209020336194E-03
52.622929456659 0.981777417274792 -1.79235721846378E-02 1.82225827252079E-02 1.79235721846378E-02 1.82225827252079E-02 1.79235721846378E-02 0.981777417274792 -1.79235721846378E-02
54.772255750517 0.98146607125033 -2.69251368055048E-02 0.01853392874967 2.69251368055048E-02 0.01853392874967 2.69251368055048E-02 0.98146607125033 -2.69251368055048E-02
57.009368938132 0.980795490513003 -3.63024506303418E-02 1.92045094869974E-02 3.63024506303418E-02 1.92045094869974E-02 3.63024506303418E-02 0.980795490513003 -3.63024506303418E-02
59.33785457966 0.980025271813078 -4.55890885644775E-02 1.99747281869225E-02 4.55890885644775E-02 1.99747281869225E-02 4.55890885644775E-02 0.980025271813078 -4.55890885644775E-02
61.761444683555 0.979199239000753 -5.48712218399588E-02 2.08007609992468E-02 5.48712218399589E-02 2.08007609992468E-02 5.48712218399589E-02 0.979199239000753 -5.48712218399588E-02
64.284023688099 0.977836720893281 -6.42159210968214E-02 2.21632791067192E-02 6.42159210968214E-02 2.21632791067192E-02 6.42159210968214E-02 0.977836720893281 -6.42159210968214E-02
66.909634687228 0.976438315841897 -7.36758134127541E-02 2.35616841581029E-02 7.36758134127541E-02 2.35616841581029E-02 7.36758134127541E-02 0.976438315841897 -7.36758134127541E-02
69.64248591065 0.974850741821273 -8.31696927164308E-02 2.51492581787266E-02 8.31696927164308E-02 2.51492581787266E-02 8.31696927164308E-02 0.974850741821273 -8.31696927164308E-02
72.486957468635 0.973017138982864 -0.092821594755343 2.69828610171359E-02 0.092821594755343 2.69828610171359E-02 0.092821594755343 0.973017138982864 -0.092821594755343
75.447608372294 0.971035959742956 -0.102872866380126 2.89640402570435E-02 0.102872866380126 2.89640402570435E-02 0.102872866380126 0.971035959742956 -0.102872866380126
78.529183840585 0.968411412293091 -0.112673940803214 3.15885877069091E-02 0.112673940803214 3.15885877069091E-02 0.112673940803214 0.968411412293091 -0.112673940803214
81.736622905769 0.965854425258359 -0.122681616350686 3.41455747416411E-02 0.122681616350686 3.41455747416411E-02 0.122681616350686 0.965854425258359 -0.122681616350686
85.075066329508 0.963083081718427 -0.132819577847944 0.036916918281573 0.132819577847944 0.036916918281573 0.132819577847944 0.963083081718427 -0.132819577847944
88.54986484228 0.959821476076195 -0.143189244533025 4.01785239238047E-02 0.143189244533025 4.01785239238047E-02 0.143189244533025 0.959821476076195 -0.143189244533025
92.166587719325 0.956256655988899 -0.153635864869996 4.37433440111011E-02 0.153635864869996 4.37433440111011E-02 0.153635864869996 0.956256655988899 -0.153635864869996
95.931031706872 0.952457353499239 -0.164179180348101 4.75426465007611E-02 0.164179180348101 4.75426465007611E-02 0.164179180348101 0.952457353499239 -0.164179180348101
99.849230312943 0.948339242263741 -0.174878643395286 5.16607577362593E-02 0.174878643395286 5.16607577362593E-02 0.174878643395286 0.948339242263741 -0.174878643395286
103.92746347763 0.943529744058736 -0.185818210833014 5.64702559412643E-02 0.185818210833014 5.64702559412643E-02 0.185818210833014 0.943529744058736 -0.185818210833014
108.17226763834 0.938580192378936 -0.196770601609159 6.14198076210637E-02 0.196770601609159 6.14198076210637E-02 0.196770601609159 0.938580192378936 -0.196770601609159
112.59044620616 0.933019660349103 -0.208012867336398 6.69803396508975E-02 0.208012867336398 6.69803396508975E-02 0.208012867336398 0.933019660349103 -0.208012867336398
117.18908047009 0.927187239418618 -0.219247928316435 7.28127605813816E-02 0.219247928316435 7.28127605813816E-02 0.219247928316435 0.927187239418618 -0.219247928316435
121.97554094669 0.920721381967149 -0.23097016242771 7.92786180328507E-02 0.23097016242771 7.92786180328507E-02 0.23097016242771 0.920721381967149 -0.23097016242771
126.95749919324 0.913909255410365 -0.242412928741929 8.60907445896356E-02 0.242412928741929 8.60907445896356E-02 0.242412928741929 0.913909255410365 -0.242412928741929
132.14294010343 0.906292194174684 -0.25397826121483 9.37078058253165E-02 0.25397826121483 9.37078058253165E-02 0.25397826121483 0.906292194174684 -0.25397826121483
137.54017470524 0.898017530191622 -0.265956127587468 0.101982469808378 0.265956127587468 0.101982469808378 0.265956127587468 0.898017530191622 -0.265956127587468
143.15785348154 0.889143616758176 -0.277962522343794 0.110856383241824 0.277962522343794 0.110856383241824 0.277962522343794 0.889143616758176 -0.277962522343794
149.00498023478 0.879690239936967 -0.290107740266721 0.120309760063033 0.290107740266721 0.120309760063033 0.290107740266721 0.879690239936967 -0.290107740266721
155.09092651792 0.869552720113649 -0.30230147530428 0.130447279886351 0.30230147530428 0.130447279886351 0.30230147530428 0.869552720113649 -0.30230147530428
161.42544665478 0.858586572657866 -0.314308840148226 0.141413427342134 0.314308840148226 0.141413427342134 0.314308840148226 0.858586572657866 -0.314308840148226
168.01869337394 0.846789301745889 -0.326391277759306 0.153210698254111 0.326391277759306 0.153210698254111 0.326391277759306 0.846789301745889 -0.326391277759306
174.88123408113 0.834257863839614 -0.338284172868821 0.165742136160385 0.338284172868821 0.165742136160385 0.338284172868821 0.834257863839614 -0.338284172868821
182.02406779628 0.820532842469453 -0.350369320042974 0.179467157530547 0.350369320042974 0.179467157530547 0.350369320042974 0.820532842469453 -0.350369320042974
189.45864278229 0.805757426760235 -0.36208061586697 0.194242573239765 0.36208061586697 0.194242573239765 0.36208061586697 0.805757426760235 -0.36208061586697
197.19687489394 0.790381026168923 -0.373832617675927 0.209618973831077 0.373832617675927 0.209618973831077 0.373832617675927 0.790381026168923 -0.373832617675927
205.2511666761 0.773424584016294 -0.384830264628103 0.226575415983706 0.384830264628103 0.226575415983706 0.384830264628103 0.773424584016294 -0.384830264628103
213.63442724211 0.755452886817997 -0.395665391841725 0.244547113182003 0.395665391841725 0.244547113182003 0.395665391841725 0.755452886817997 -0.395665391841725
222.36009296399 0.736528734430868 -0.405748810926188 0.263471265569132 0.405748810926188 0.263471265569132 0.405748810926188 0.736528734430868 -0.405748810926188
231.44214900774 0.716064200389774 -0.415563776258272 0.283935799610226 0.415563776258272 0.283935799610226 0.415563776258272 0.716064200389774 -0.415563776258272
240.89515174829 0.694556351114905 -0.424395989887338 0.305443648885095 0.424395989887338 0.305443648885095 0.424395989887338 0.694556351114905 -0.424395989887338
250.73425209981 0.671312345311153 -0.432253549579748 0.328687654688847 0.432253549579748 0.328687654688847 0.432253549579748 0.671312345311153 -0.432253549579748
260.97521979912 0.646816863450447 -0.439020810909185 0.353183136549553 0.439020810909185 0.353183136549553 0.439020810909185 0.646816863450447 -0.439020810909185
271.63446868076 0.621015205703364 -0.444682145847257 0.378984794296636 0.444682145847257 0.378984794296636 0.444682145847257 0.621015205703364 -0.444682145847257
282.72908298448 0.593950382428245 -0.448545445292436 0.406049617571755 0.448545445292436 0.406049617571755 0.448545445292436 0.593950382428245 -0.448545445292436
294.27684473722 0.565274904185118 -0.450715623687193 0.434725095814882 0.450715623687193 0.434725095814882 0.450715623687193 0.565274904185118 -0.450715623687193
306.29626225346 0.535263591851054 -0.450926042448314 0.464736408148946 0.450926042448314 0.464736408148946 0.450926042448314 0.535263591851054 -0.450926042448314
318.80659979964 0.504084298064775 -0.44854451206014 0.495915701935225 0.44854451206014 0.495915701935225 0.44854451206014 0.504084298064775 -0.44854451206014
331.82790847021 0.471803157705844 -0.443511461712876 0.528196842294156 0.443511461712876 0.528196842294156 0.443511461712876 0.471803157705844 -0.443511461712876
345.38105832474 0.43874029496881 -0.435156889371546 0.56125970503119 0.435156889371546 0.56125970503119 0.435156889371546 0.43874029496881 -0.435156889371546
359.4877718377 0.404897752425192 -0.423201296296542 0.595102247574808 0.423201296296542 0.595102247574808 0.423201296296542 0.404897752425192 -0.423201296296542
374.17065871437 0.370883003295775 -0.407385731012022 0.629116996704226 0.407385731012022 0.629116996704226 0.407385731012022 0.370883003295775 -0.407385731012022
389.45325212884 0.337334470175133 -0.386933119522436 0.662665529824866 0.386933119522436 0.662665529824866 0.386933119522436 0.337334470175133 -0.386933119522436
405.36004644211 0.304497395729169 -0.361518466020161 0.695502604270831 0.361518466020161 0.695502604270831 0.361518466020161 0.304497395729169 -0.361518466020161
421.91653646068 0.273436979034173 -0.330731145167412 0.726563020965827 0.330731145167412 0.726563020965827 0.330731145167412 0.273436979034173 -0.330731145167412
439.1492582987 0.245330517052925 -0.29428332490745 0.754669482947075 0.29428332490745 0.754669482947075 0.29428332490745 0.245330517052925 -0.29428332490745
457.08583190901 0.221543787698531 -0.251590828514515 0.778456212301469 0.251590828514515 0.778456212301469 0.251590828514515 0.221543787698531 -0.251590828514515
475.75500535137 0.203629110943816 -0.203116601760106 0.796370889056184 0.203116601760106 0.796370889056184 0.203116601760106 0.203629110943816 -0.203116601760106
495.18670086878 0.193717302291037 -0.148934163409079 0.806282697708963 0.148934163409079 0.806282697708963 0.148934163409079 0.193717302291037 -0.148934163409079
515.41206284568 0.194199079114665 -9.03183395750528E-02 0.805800920885335 9.03183395750528E-02 0.805800920885335 9.03183395750528E-02 0.194199079114665 -9.03183395750528E-02
536.463507725 0.207477816964864 -2.90601819661214E-02 0.792522183035136 2.90601819661214E-02 0.792522183035136 2.90601819661214E-02 0.207477816964864 -2.90601819661214E-02
558.37477596403 0.236079717922087 3.12917673362855E-02 0.763920282077913 -3.12917673362855E-02 0.763920282077913 -3.12917673362855E-02 0.236079717922087 3.12917673362855E-02
581.1809861123 0.281666438482253 8.62855845351832E-02 0.718333561517747 -8.62855845351832E-02 0.718333561517747 -8.62855845351832E-02 0.281666438482253 8.62855845351832E-02
604.9186910983 0.344223960704757 0.129584595509411 0.655776039295243 -0.129584595509411 0.655776039295243 -0.129584595509411 0.344223960704757 0.129584595509411
629.6259368151 0.42084176418615 0.153815575357781 0.57915823581385 -0.153815575357781 0.57915823581385 -0.153815575357781 0.42084176418615 0.153815575357781
655.34232309887 0.505314814675193 0.152541479965026 0.494685185324807 -0.152541479965026 0.494685185324807 -0.152541479965026 0.505314814675193 0.152541479965026
682.10906719802 0.587228915771099 0.122253510150775 0.412771084228901 -0.122253510150775 0.412771084228901 -0.122253510150775 0.587228915771099 0.122253510150775
709.9690698346 0.65422569871919 6.44149700769314E-02 0.34577430128081 -6.44149700769314E-02 0.34577430128081 -6.44149700769314E-02 0.65422569871919 6.44149700769314E-02
738.96698396399 0.696538410724421 -0.013192840965401 0.303461589275579 0.013192840965401 0.303461589275579 0.013192840965401 0.696538410724421 -0.013192840965401
769.14928634292 0.708270105866887 -9.85565774455728E-02 0.291729894133113 9.85565774455729E-02 0.291729894133113 9.85565774455729E-02 0.708270105866887 -9.85565774455728E-02
800.56435202071 0.691075699269114 -0.178992503312159 0.308924300730887 0.178992503312159 0.308924300730887 0.178992503312159 0.691075699269114 -0.178992503312159
833.2625318729 0.650692882019328 -0.245594715942316 0.349307117980672 0.245594715942316 0.349307117980672 0.245594715942316 0.650692882019328 -0.245594715942316
867.29623330177 0.595622517222607 -0.29302221538943 0.404377482777393 0.29302221538943 0.404377482777393 0.29302221538943 0.595622517222607 -0.29302221538943
902.72000423292 0.533692382363535 -0.320094187082969 0.466307617636465 0.320094187082969 0.466307617636465 0.320094187082969 0.533692382363535 -0.320094187082969
939.59062054262 0.471887554690844 -0.328885346313756 0.528112445309156 0.328885346313756 0.528112445309156 0.328885346313756 0.471887554690844 -0.328885346313756
977.96717705602 0.414381005138684 -0.322279253858033 0.585618994861316 0.322279253858033 0.585618994861316 0.322279253858033 0.414381005138684 -0.322279253858033
1017.9111822621 0.363861211254348 -0.303659538666543 0.636138788745652 0.303659538666543 0.636138788745652 0.303659538666543 0.363861211254348 -0.303659538666543
1059.4866568971 0.322033820260506 -0.275909393462098 0.677966179739494 0.275909393462098 0.677966179739494 0.275909393462098 0.322033820260506 -0.275909393462098
1102.7602365548 0.289415050338986 -0.242513848946996 0.710584949661015 0.242513848946996 0.710584949661015 0.242513848946996 0.289415050338986 -0.242513848946996
1147.8012784869 0.26579127051923 -0.205393721897912 0.73420872948077 0.205393721897912 0.73420872948077 0.205393721897912 0.26579127051923 -0.205393721897912
1194.6819727669 0.25090702997393 -0.166792956087918 0.74909297002607 0.166792956087918 0.74909297002607 0.166792956087918 0.25090702997393 -0.166792956087918
1243.4774579931 0.244298638908308 -0.128082931931227 0.755701361091692 0.128082931931227 0.755701361091692 0.128082931931227 0.244298638908308 -0.128082931931227
1294.2659417184 0.245150610010541 -9.05782190343406E-02 0.754849389989459 9.05782190343406E-02 0.754849389989459 9.05782190343406E-02 0.245150610010541 -9.05782190343406E-02
1347.1288257976 0.253035571436075 -5.53283906598121E-02 0.746964428563925 5.53283906598121E-02 0.746964428563925 5.53283906598121E-02 0.253035571436075 -5.53283906598121E-02
1402.1508368562 0.267199598499809 -2.34313820630217E-02 0.732800401500191 2.34313820630217E-02 0.732800401500191 2.34313820630217E-02 0.267199598499809 -2.34313820630217E-02
1459.4201620862 0.286969643236608 4.44251832069642E-03 0.713030356763392 -4.44251832069642E-03 0.713030356763392 -4.44251832069642E-03 0.286969643236608 4.44251832069642E-03
1519.0285905896 0.312121961731824 0.02693664948057 0.687878038268176 -0.02693664948057 0.687878038268176 -0.02693664948057 0.312121961731824 0.02693664948057
1581.0716604945 0.341997563152627 4.30313871194716E-02 0.658002436847373 -4.30313871194716E-02 0.658002436847373 -4.30313871194716E-02 0.341997563152627 4.30313871194716E-02
1645.6488120795 0.375549651148771 5.05925467152087E-02 0.624450348851229 -5.05925467152087E-02 0.624450348851229 -5.05925467152087E-02 0.375549651148771 5.05925467152087E-02
1712.8635471537 0.409348703918685 4.67538121065561E-02 0.590651296081316 -4.67538121065561E-02 0.590651296081316 -4.67538121065561E-02 0.409348703918685 4.67538121065561E-02
1782.8235949447 0.436366841735754 0.032290730344918 0.563633158264246 -3.22907303449179E-02 0.563633158264246 -3.22907303449179E-02 0.436366841735754 0.032290730344918
1855.6410847631 0.453905354519614 1.63231507996759E-02 0.546094645480386 -1.63231507996759E-02 0.546094645480386 -1.63231507996759E-02 0.453905354519614 1.63231507996759E-02
1931.4327257193 0.468902498674824 -1.16556459160712E-03 0.531097501325176 1.16556459160712E-03 0.531097501325176 1.16556459160712E-03 0.468902498674824 -1.16556459160712E-03
2010.3199937803 0.479223462461312 -2.18558987188306E-02 0.520776537538688 2.18558987188306E-02 0.520776537538688 2.18558987188306E-02 0.479223462461312 -2.18558987188306E-02
2092.4293264669 0.480606887475346 -4.64093251516376E-02 0.519393112524653 4.64093251516376E-02 0.519393112524653 4.64093251516376E-02 0.480606887475346 -4.64093251516376E-02
2177.8923255027 0.468734401597328 -0.064496308732236 0.531265598402672 0.064496308732236 0.531265598402672 0.064496308732236 0.468734401597328 -0.064496308732236
2266.8459677405 0.454693663962783 -6.54604003708184E-02 0.545306336037217 6.54604003708184E-02 0.545306336037217 6.54604003708184E-02 0.454693663962783 -6.54604003708184E-02
2359.4328247037 0.455448268578908 -0.055624177712001 0.544551731421092 0.055624177712001 0.544551731421092 0.055624177712001 0.455448268578908 -0.055624177712001
2455.8012910944 0.472133588778804 -5.29291498561975E-02 0.527866411221196 5.29291498561975E-02 0.527866411221196 5.29291498561975E-02 0.472133588778804 -5.29291498561975E-02
2556.1058226349 0.492858589966276 -6.47432623079123E-02 0.507141410033724 6.47432623079123E-02 0.507141410033724 6.47432623079123E-02 0.492858589966276 -6.47432623079123E-02
2660.5071836233 0.508433863499254 -9.00503264474562E-02 0.491566136500746 9.00503264474562E-02 0.491566136500746 9.00503264474562E-02 0.508433863499254 -9.00503264474562E-02
2769.1727046005 0.512558973608911 -0.122961889088405 0.487441026391089 0.122961889088405 0.487441026391089 0.122961889088405 0.512558973608911 -0.122961889088405
2882.2765505415 0.50277137156117 -0.158001721356948 0.49722862843883 0.158001721356948 0.49722862843883 0.158001721356948 0.50277137156117 -0.158001721356948
3000 0.479128823239795 -0.183646594939434 0.520871176760205 0.183646594939434 0.520871176760205 0.183646594939434 0.479128823239795 -0.183646594939434
